proyfinal/src/viki/013/andrea/andrea-localstore/experimentInOfficeAgust.take6/worker_4/d0b9a359-3c91-4264-86a4-ab14c2729524.als.cnf.out
Reading from standard input... Use '--help' for help.
============================[ Problem Statistics ]=============================
|                                                                             |
|  Number of variables:         87638                                         |
|  Number of clauses:          161767                                         |
|  Parse time:                   0.04 s                                       |
|                                                                             |
============================[ Search Statistics ]==============================
| Conflicts |          ORIGINAL         |          LEARNT          | Progress |
|           |    Vars  Clauses Literals |    Limit  Clauses Lit/Cl |          |
===============================================================================
|       100 |   62804   106627   266507 |    39096      100     24 | 28.337 % |
|       250 |   62803   106583   266417 |    43006      249     31 | 28.338 % |
|       475 |   62803   106583   266417 |    47306      474     48 | 28.338 % |
|       812 |   62803   106583   266417 |    52037      811     55 | 28.338 % |
|      1318 |   62803   106583   266417 |    57241     1317     55 | 28.338 % |
|      2077 |   62803   106583   266417 |    62965     2076     73 | 28.338 % |
|      3216 |   62783   106505   266230 |    69261     3214    100 | 28.361 % |
|      4924 |   49350    67397   169529 |    76188     4585     87 | 43.689 % |
|      7486 |   49117    66376   167038 |    83806     7023     75 | 43.955 % |
|     11330 |   48801    65006   163823 |    92187     9562     67 | 44.315 % |
===============================================================================
restarts              : 56
conflicts             : 12708          (7953 /sec)
decisions             : 45597          (0.00 % random) (28537 /sec)
propagations          : 17090813       (10696305 /sec)
conflict literals     : 776060         (42.60 % deleted)
Memory used           : 29.59 MB
CPU time              : 1.59782 s

UNSATISFIABLE
